SCIP version 5.0.0 [precision: 8 byte] [memory: block] [mode: optimized] [LP solver: NONE] [GitHash: 3bbd232]
Copyright (C) 2002-2017 Konrad-Zuse-Zentrum fuer Informationstechnik Berlin (ZIB)

External codes: 
  Readline EditLine w  GNU library for command line editing (gnu.org/s/readline)
  CppAD 20160000.1     Algorithmic Differentiation of C++ algorithms developed by B. Bell (www.coin-or.org/CppAD)
  ZLIB 1.2.5           General purpose compression library by J. Gailly and M. Adler (zlib.net)
  GMP 6.1.2            GNU Multiple Precision Arithmetic Library developed by T. Granlund (gmplib.org)

user parameter file <scip.set> not found - using default parameters

read problem <../../Split_data/output/statG/2/0_sample_statG.logreg>
============

File name	:	../../Split_data/output/statG/2/0_sample_statG.logreg
Problem name 	:	0_sample_statG
Number of data	:	800
Number of var	:	61
The given data has linear dependence
13 sets of column vector are linearly dependent:

[dim=1] time: 0.035926
[dim=2] time: 0.078673
[dim=3] time: 0.12757
[dim=4] time: 0.167825
[dim=5] time: 0.207965
[dim=6] time: 0.249755
[dim=7] time: 0.291555
[dim=8] time: 0.340372
[dim=9] time: 0.388257
[dim=10] time: 0.429858
[dim=11] time: 0.471573
[dim=12] time: 0.51457
[dim=13] time: 0.564747
[dim=14] time: 0.606254
[dim=15] time: 0.648434
[dim=16] time: 0.692232
[dim=17] time: 0.735349
[dim=18] time: 0.778586
[dim=19] time: 0.820406
[dim=20] time: 0.858248
[dim=21] time: 0.896588
[dim=22] time: 0.934816
[dim=23] time: 0.971641
[dim=24] time: 1.01534
[dim=25] Time of forward = 1.04821sec.
AIC: 772.323
k: 24

[dim=48] time: 0.121144
[dim=47] time: 0.192588
[dim=46] time: 0.264302
[dim=45] time: 0.329347
[dim=44] time: 0.398121
[dim=43] time: 0.473424
[dim=42] time: 0.538305
[dim=41] time: 0.597016
[dim=40] time: 0.652777
[dim=39] time: 0.699699
[dim=38] time: 0.765931
[dim=37] time: 0.819794
[dim=36] time: 0.863009
[dim=35] time: 0.906877
[dim=34] time: 0.955618
[dim=33] time: 0.999016
[dim=32] time: 1.03918
[dim=31] time: 1.08799
[dim=30] time: 1.12074
[dim=29] time: 1.15615
[dim=28] Time of backward = 1.18832sec.
AIC: 775.989
k: 29
